NAME: Random_95_1
ELLAPSED_TIME_(ms): 2
TOUR_SIZE: 2975.1963
TOUR_SECTION
0
8
41
61
4
77
1
92
78
87
59
14
68
40
83
60
94
53
22
44
91
16
89
64
7
52
57
42
54
84
79
10
82
33
69
2
48
39
38
36
17
81
43
24
23
65
30
75
25
9
5
62
73
3
6
35
66
13
15
93
18
50
67
12
49
51
70
55
85
21
20
63
76
28
11
37
27
32
71
46
31
47
86
29
45
80
19
34
72
56
88
90
74
26
58
0
EOF
